clingo version 5.6.2
Reading from ...ogen_asp_scripts/ijp_expt_cases-152.dl
Solving...
UNSATISFIABLE

Models       : 0
Calls        : 1
Time         : 3.745s (Solving: 3.36s 1st Model: 0.00s Unsat: 3.36s)
CPU Time     : 3.744s
